p tw 155 412
0 1
0 2
0 3
0 30
0 31
0 32
0 33
1 2
1 3
1 52
2 3
2 12
2 53
2 54
2 55
3 63
4 5
4 6
4 7
4 8
4 9
4 73
4 145
4 150
5 6
5 7
5 8
5 9
5 34
6 7
6 8
6 9
6 42
6 43
6 44
7 8
7 9
7 65
7 82
7 141
8 9
8 22
8 23
8 24
9 92
9 93
9 94
9 95
10 11
10 88
10 89
11 19
11 118
11 127
11 153
12 13
12 14
12 15
12 16
12 17
12 53
12 54
12 55
13 14
13 15
13 16
13 17
13 85
14 15
14 16
14 17
14 89
14 118
14 119
15 16
15 17
15 39
15 40
15 41
16 17
16 51
16 125
16 126
17 88
17 127
17 128
18 19
18 119
18 128
18 149
19 118
19 127
19 153
20 21
20 79
20 80
20 81
20 82
21 65
21 66
21 67
21 68
22 23
22 24
22 59
22 92
22 120
23 24
23 34
24 141
25 26
25 27
25 28
25 29
25 84
25 107
25 114
25 143
25 151
26 27
26 28
26 29
26 86
26 87
27 28
27 29
27 83
28 29
28 91
28 98
28 111
29 90
29 99
29 112
30 31
30 32
30 33
30 40
30 108
30 116
30 146
31 32
31 33
31 110
32 33
32 63
33 39
33 109
33 117
33 122
35 36
35 43
35 61
35 73
35 74
36 44
36 62
36 150
37 38
37 135
37 136
38 47
38 106
38 129
38 130
38 131
39 40
39 41
39 109
39 117
39 122
40 41
40 108
40 116
40 146
41 125
42 43
42 44
42 103
42 145
43 44
43 61
43 73
43 74
44 62
44 150
45 46
45 47
45 48
45 49
45 69
45 77
46 47
46 48
46 49
46 121
47 48
47 49
47 106
47 129
47 130
47 131
48 49
48 78
48 138
48 152
49 71
49 75
49 76
50 51
50 52
50 53
50 64
50 115
51 52
51 53
51 125
51 126
52 53
53 54
53 55
54 55
54 102
54 113
54 114
54 115
55 64
56 57
56 93
56 134
56 139
57 96
58 59
58 60
58 94
59 60
59 92
59 120
60 95
60 129
60 136
60 140
61 62
61 73
61 74
62 150
64 115
65 66
65 67
65 68
65 82
65 141
66 67
66 68
66 80
66 142
67 68
67 79
67 96
67 139
67 147
68 81
69 70
69 71
69 72
69 77
70 71
70 72
70 97
71 72
71 75
71 76
72 104
73 74
73 145
73 150
74 103
75 76
75 77
75 78
76 152
76 154
77 78
78 138
78 152
79 80
79 81
79 82
79 96
79 139
79 147
80 81
80 82
80 142
81 82
82 141
83 84
84 107
84 114
84 143
84 151
85 126
86 87
86 90
86 91
87 111
87 132
87 133
88 89
88 127
88 128
89 118
89 119
90 91
90 99
90 112
91 98
91 111
92 93
92 94
92 95
92 120
93 94
93 95
93 134
93 139
94 95
95 129
95 136
95 140
96 139
96 147
97 104
98 99
98 100
98 111
99 100
99 112
100 137
100 154
101 102
101 107
102 113
102 114
102 115
103 145
105 106
105 140
106 129
106 130
106 131
107 114
107 143
107 151
108 109
108 110
108 116
108 146
109 110
109 117
109 122
111 132
111 133
112 137
112 138
113 114
113 115
113 144
113 148
114 115
114 143
114 151
116 117
116 146
117 122
118 119
118 127
118 153
119 128
119 149
120 134
121 130
122 146
123 124
123 132
124 133
125 126
127 128
127 153
128 149
129 130
129 131
129 136
129 140
130 131
131 135
132 133
134 139
135 136
136 140
137 138
137 154
138 152
139 147
142 147
143 144
143 151
144 148
145 150
148 151
149 153
152 154
